186 5
10 10 10 10 10 

0 0 0 0 0 0 3 2 14 26 
0 0 0 0 0 0 2 3 4 
10 0 5 0 0 0 2 10 5 
8 0 8 0 0 0 2 10 5 
9 0 8 0 0 0 1 6 
4 0 10 0 0 0 1 7 
6 0 10 0 0 0 2 12 8 
7 0 6 0 0 0 1 9 
9 0 9 0 0 0 1 11 
4 0 10 0 0 0 1 12 
1 0 5 0 0 0 1 13 
6 0 4 0 0 0 1 13 
0 0 0 0 0 0 1 38 
0 0 0 0 0 0 3 15 16 23 
3 0 5 0 0 0 2 22 17 
4 0 5 0 0 0 2 22 18 
9 0 6 0 0 0 1 18 
8 0 7 0 0 0 1 19 
3 0 10 0 0 0 1 20 
5 0 10 0 0 0 1 21 
10 0 10 0 0 0 1 24 
6 0 7 0 0 0 1 24 
6 0 10 0 0 0 1 24 
7 0 5 0 0 0 1 25 
0 0 0 0 0 0 1 38 
0 0 0 0 0 0 1 27 
9 0 0 0 1 0 2 32 28 
2 0 0 0 8 0 1 29 
8 0 0 0 9 0 2 36 30 
9 0 0 0 9 0 2 33 31 
9 0 0 0 7 0 1 34 
5 0 0 0 7 0 1 33 
1 0 0 0 10 0 1 35 
3 0 0 0 7 0 1 35 
7 0 0 0 8 0 1 37 
3 0 0 0 9 0 1 37 
0 0 0 0 0 0 1 38 
0 0 0 0 0 0 3 39 51 63 
0 0 0 0 0 0 1 40 
6 0 0 0 5 0 2 42 41 
4 0 0 0 4 0 1 43 
6 0 0 0 7 0 1 43 
5 0 0 0 10 0 2 45 44 
2 0 0 0 10 0 2 47 46 
4 0 0 0 9 0 1 46 
1 0 0 0 10 0 1 48 
3 0 0 0 6 0 1 48 
8 0 0 0 8 0 1 49 
4 0 0 0 6 0 1 50 
0 0 0 0 0 0 1 75 
0 0 0 0 0 0 2 52 57 
6 0 4 0 0 0 3 61 60 53 
2 0 8 0 0 0 1 54 
10 0 6 0 0 0 1 55 
9 0 10 0 0 0 1 56 
10 0 8 0 0 0 1 58 
4 0 8 0 0 0 1 58 
2 0 8 0 0 0 1 59 
6 0 6 0 0 0 1 62 
3 0 7 0 0 0 1 62 
9 0 10 0 0 0 1 62 
0 0 0 0 0 0 1 75 
0 0 0 0 0 0 2 64 70 
6 4 0 0 0 0 2 73 65 
6 6 0 0 0 0 1 66 
9 10 0 0 0 0 1 67 
7 7 0 0 0 0 2 72 68 
9 5 0 0 0 0 1 69 
3 10 0 0 0 0 1 71 
5 9 0 0 0 0 1 72 
8 9 0 0 0 0 1 74 
10 5 0 0 0 0 1 74 
10 10 0 0 0 0 1 74 
0 0 0 0 0 0 1 75 
0 0 0 0 0 0 3 76 88 100 
0 0 0 0 0 0 2 77 78 
3 3 0 0 0 0 1 79 
6 7 0 0 0 0 1 79 
7 4 0 0 0 0 2 81 80 
1 4 0 0 0 0 2 84 82 
5 10 0 0 0 0 1 82 
10 8 0 0 0 0 1 83 
2 10 0 0 0 0 1 85 
7 9 0 0 0 0 1 85 
7 10 0 0 0 0 1 86 
6 10 0 0 0 0 1 87 
0 0 0 0 0 0 1 112 
0 0 0 0 0 0 1 89 
9 0 3 0 0 0 2 91 90 
6 0 9 0 0 0 2 95 93 
5 0 10 0 0 0 2 95 92 
10 0 7 0 0 0 1 94 
5 0 7 0 0 0 1 94 
10 0 7 0 0 0 1 96 
1 0 9 0 0 0 1 96 
2 0 7 0 0 0 1 97 
9 0 10 0 0 0 1 98 
2 0 6 0 0 0 1 99 
0 0 0 0 0 0 1 112 
0 0 0 0 0 0 1 101 
1 0 6 0 0 0 1 102 
3 0 6 0 0 0 1 103 
7 0 9 0 0 0 2 105 104 
3 0 2 0 0 0 2 107 106 
5 0 10 0 0 0 2 107 106 
10 0 6 0 0 0 1 109 
8 0 10 0 0 0 1 108 
3 0 7 0 0 0 1 110 
8 0 9 0 0 0 1 110 
10 0 10 0 0 0 1 111 
0 0 0 0 0 0 1 112 
0 0 0 0 0 0 3 113 125 137 
0 0 0 0 0 0 1 114 
2 0 0 0 0 2 1 115 
7 0 0 0 0 4 2 118 116 
8 0 0 0 0 9 2 120 117 
7 0 0 0 0 9 1 119 
10 0 0 0 0 10 1 119 
3 0 0 0 0 10 2 123 121 
1 0 0 0 0 10 2 123 121 
1 0 0 0 0 7 1 122 
1 0 0 0 0 9 1 124 
1 0 0 0 0 5 1 124 
0 0 0 0 0 0 1 149 
0 0 0 0 0 0 2 126 128 
1 1 0 0 0 0 1 127 
10 10 0 0 0 0 2 132 129 
2 6 0 0 0 0 2 132 131 
5 3 0 0 0 0 1 130 
8 10 0 0 0 0 1 131 
4 6 0 0 0 0 2 135 133 
5 10 0 0 0 0 2 135 133 
2 10 0 0 0 0 1 134 
1 10 0 0 0 0 1 136 
4 9 0 0 0 0 1 136 
0 0 0 0 0 0 1 149 
0 0 0 0 0 0 3 138 141 142 
10 3 0 0 0 0 1 139 
3 7 0 0 0 0 1 140 
1 10 0 0 0 0 2 147 143 
5 8 0 0 0 0 2 147 144 
4 6 0 0 0 0 1 143 
2 7 0 0 0 0 1 144 
10 9 0 0 0 0 1 145 
7 9 0 0 0 0 1 146 
1 9 0 0 0 0 1 148 
7 7 0 0 0 0 1 148 
0 0 0 0 0 0 1 149 
0 0 0 0 0 0 3 150 162 174 
0 0 0 0 0 0 2 151 153 
4 0 0 0 3 0 2 157 152 
10 0 0 0 10 0 1 154 
6 0 0 0 5 0 1 154 
4 0 0 0 10 0 1 155 
3 0 0 0 5 0 1 156 
3 0 0 0 7 0 1 158 
3 0 0 0 8 0 1 158 
7 0 0 0 9 0 2 160 159 
3 0 0 0 10 0 1 161 
6 0 0 0 8 0 1 161 
0 0 0 0 0 0 1 186 
0 0 0 0 0 0 3 163 168 172 
2 0 5 0 0 0 2 171 164 
7 0 8 0 0 0 1 165 
9 0 6 0 0 0 1 166 
2 0 10 0 0 0 1 167 
9 0 10 0 0 0 1 169 
5 0 10 0 0 0 1 169 
5 0 8 0 0 0 1 170 
9 0 10 0 0 0 1 173 
8 0 1 0 0 0 1 173 
6 0 7 0 0 0 1 173 
0 0 0 0 0 0 1 186 
0 0 0 0 0 0 1 175 
9 0 6 0 0 0 2 177 176 
3 0 6 0 0 0 2 184 178 
5 0 9 0 0 0 1 178 
2 0 6 0 0 0 2 181 179 
9 0 10 0 0 0 1 180 
3 0 9 0 0 0 1 182 
4 0 4 0 0 0 1 182 
1 0 10 0 0 0 1 183 
6 0 7 0 0 0 1 185 
2 0 8 0 0 0 1 185 
0 0 0 0 0 0 1 186 
0 0 0 0 0 0 0 
